
Gurobi 10.0.3 (linux64, gurobi_cl) logging started Fri Nov 10 18:51:15 2023

Set parameter Username
Set parameter TimeLimit to value 3600
Set parameter LogFile to value "RCPSP_1689.log"
Set parameter Threads to value 32
Academic license - for non-commercial use only - expires 2024-11-06
Using license file /home/jrivera6/gurobi-licenses/v1003/compute-0-36/gurobi.lic

Gurobi Optimizer version 10.0.3 build v10.0.3rc0 (linux64)
Copyright (c) 2023, Gurobi Optimization, LLC

Read MPS format model from file RCPSP_1689.mps
Reading time = 0.15 seconds
RCPSP_1689: 75251 rows, 29890 columns, 237025 nonzeros

CPU model: Intel(R) Xeon(R) Gold 6130 CPU @ 2.10GHz, instruction set [SSE2|AVX|AVX2|AVX512]
Thread count: 32 physical cores, 32 logical processors, using up to 32 threads

Optimize a model with 75251 rows, 29890 columns and 237025 nonzeros
Model fingerprint: 0xd15cac92
Variable types: 122 continuous, 29768 integer (29768 binary)
Coefficient statistics:
  Matrix range     [1e+00, 6e+02]
  Objective range  [1e+00, 1e+00]
  Bounds range     [1e+00, 1e+00]
  RHS range        [1e+00, 6e+02]
Presolve removed 11184 rows and 1606 columns (presolve time = 5s) ...
Presolve removed 11184 rows and 1606 columns (presolve time = 10s) ...
Presolve removed 12622 rows and 2453 columns
Presolve time: 11.09s
Presolved: 62629 rows, 27437 columns, 205580 nonzeros
Variable types: 121 continuous, 27316 integer (27316 binary)

Deterministic concurrent LP optimizer: primal and dual simplex (primal and dual model)
Showing first log only...

Root relaxation presolved: 62629 rows, 27437 columns, 205580 nonzeros


Root simplex log...

Iteration    Objective       Primal Inf.    Dual Inf.      Time
       0    9.4013599e+01   1.001666e-02   2.467246e+08     14s
    3464    9.4000000e+01   0.000000e+00   0.000000e+00     15s
Concurrent spin time: 2.13s

Solved with dual simplex (dual model)

Root relaxation: objective 9.400000e+01, 29890 iterations, 4.71 seconds (0.27 work units)
Total elapsed time = 22.50s

    Nodes    |    Current Node    |     Objective Bounds      |     Work
 Expl Unexpl |  Obj  Depth IntInf | Incumbent    BestBd   Gap | It/Node Time

     0     0   94.00000    0    2          -   94.00000      -     -   24s
     0     0   94.00000    0    4          -   94.00000      -     -   45s
H    0     0                      94.0000000   94.00000  0.00%     -   52s
     0     0   94.00000    0   74   94.00000   94.00000  0.00%     -   52s

Cutting planes:
  Gomory: 3
  Implied bound: 1
  MIR: 6
  StrongCG: 1
  RLT: 1
  Relax-and-lift: 7

Explored 1 nodes (37157 simplex iterations) in 53.65 seconds (9.64 work units)
Thread count was 32 (of 32 available processors)

Solution count 1: 94 

Optimal solution found (tolerance 1.00e-04)
Best objective 9.400000000000e+01, best bound 9.400000000000e+01, gap 0.0000%

Wrote result file 'RCPSP_1689.sol'

